benchmarks/bfuzz0/2609659403267923969541244012800431344.smt2
(set-logic QF_FP)
(declare-const x0 (_ FloatingPoint 8 24))
(declare-const x1 (_ FloatingPoint 8 24))
(declare-const x2 (_ FloatingPoint 8 24))
(declare-const x3 (_ FloatingPoint 8 24))
(declare-const x4 (_ FloatingPoint 8 24))
(declare-const x5 (_ FloatingPoint 8 24))
(assert (fp.geq (fp.div RNE (fp.div RNE x0 x4) (fp.div RNE x2 x1)) (fp.neg (fp.neg x1))))
(assert (fp.geq (fp.mul RNE (fp.sub RNE x3 x2) (fp.div RNE x3 x2)) (fp.neg (fp.mul RNE x3 x2))))
(assert (fp.eq (fp.sub RNE (fp.mul RNE x1 x2) (fp.div RNE x2 x5)) (fp.add RNE (fp.add RNE x5 x3) (fp.mul RNE x0 x3))))
(assert (fp.geq (fp.neg (fp.neg x0)) (fp.neg (fp.mul RNE x3 x2))))
(assert (fp.lt (fp.add RNE (fp.neg x1) (fp.div RNE x0 x4)) (fp.mul RNE (fp.neg x4) (fp.neg x0))))
(assert (fp.eq (fp.div RNE (fp.neg x3) (fp.div RNE x5 x1)) (fp.sub RNE (fp.mul RNE x0 x0) (fp.add RNE x3 x1))))
(assert (fp.lt (fp.add RNE (fp.div RNE x0 x3) (fp.mul RNE x1 x2)) (fp.sub RNE (fp.sub RNE x2 x1) (fp.neg x4))))
(assert (fp.lt (fp.mul RNE (fp.neg x3) (fp.mul RNE x4 x5)) (fp.div RNE (fp.div RNE x1 x2) (fp.mul RNE x5 x4))))
(assert (fp.eq (fp.div RNE (fp.div RNE x3 x0) (fp.add RNE x2 x4)) (fp.div RNE (fp.mul RNE x0 x3) (fp.neg x5))))
(assert (fp.eq (fp.sub RNE (fp.sub RNE x0 x2) (fp.add RNE x0 x5)) (fp.neg (fp.add RNE x3 x3))))
(check-sat)
