db/data/2609659403267923969541244012800431344.z3.out
sat
-------------------
497.279240843
